134	32	4	93	
10	10	10	10

0	0	0	0	0	0	2	1	2
1	1	1	0	1	10	2	6	3
2	2	4	1	0	5	2	6	4
3	6	5	0	7	1	1	4
4	3	0	2	2	3	1	5
5	5	5	0	3	2	3	15	10	7
6	4	6	0	4	7	3	15	10	9
7	5	0	5	4	8	1	8
8	6	0	1	4	9	1	9
9	0	3	1	4	6	2	20	11
10	3	5	4	0	3	1	11
11	0	1	4	7	4	1	12
12	0	7	3	4	6	1	13
13	4	7	0	3	8	2	18	14
14	3	6	0	2	1	1	16
15	0	2	6	5	3	1	16
16	0	4	6	3	4	1	17
17	4	6	4	0	3	2	23	19
18	4	4	3	0	7	1	19
19	0	2	4	4	5	2	28	21
20	0	2	3	2	3	2	28	21
21	5	3	4	0	10	1	22
22	0	7	7	4	1	1	24
23	4	2	6	0	9	1	24
24	7	5	0	7	2	2	30	25
25	5	1	5	0	2	1	26
26	0	2	4	5	2	1	27
27	2	0	4	4	1	1	29
28	3	4	4	0	3	1	29
29	0	6	8	7	5	1	31
30	0	4	3	2	1	1	31
31	0	0	0	0	0	0
